WARNING: for repeatability, setting FPU to use double precision
============================[ Problem Statistics ]=============================
|                                                                             |
|  Number of variables:           174                                         |
|  Number of clauses:            3866                                         |
|  Parse time:                   0.00 s                                       |
|                                                                             |
============================[ Search Statistics ]==============================
| Conflicts |          ORIGINAL         |          LEARNT          | Progress |
|           |    Vars  Clauses Literals |    Limit  Clauses Lit/Cl |          |
===============================================================================
===============================================================================
restarts              : 1
conflicts             : 16             (inf /sec)
decisions             : 293            (0.00 % random) (inf /sec)
propagations          : 333            (inf /sec)
conflict literals     : 178            (5.32 % deleted)
Memory used           : 6.00 MB
CPU time              : 0 s

SATISFIABLE
